1000
[100,101,104,106,108,109,111,115,116,122,124,128,130,132,133,135,136,137,138,139,140,143,144,145,147,149,150,151,153,156,158,159,162,163,164,166,167,168,169,172,173,174,175,176,178,180,183,184,185,189,190,194,195,197,199,200,202,203,204,207,209,212,213,215,217,218,221,222,225,226,227,231,232,233,234,236,237,238,239,240,243,246,247,248,250,251,252,254,256,257,258,259,261,262,263,264,265,266,267,268,271,273,276,277,281,282,283,286,289,291,292,294,297,300,301,302,303,305,306,307,310,313,314,317,318,320,321,322,323,324,325,327,328,329,331,332,333,335,337,338,340,341,342,343,346,348,349,350,352,354,356,358,359,360,362,363,364,366,367,369,371,372,373,374,377,378,381,382,386,388,389,391,393,396,398,400,402,404,406,408,409,410,411,412,413,414,415,420,422,424,427,429,430,431,432,433,435,437,438,440,442,443,444,445,447,448,450,452,454,455,456,457,459,462,463,465,467,469,471,472,473,476,478,481,482,483,485,486,487,488,489,490,492,493,494,495,496,497,500,502,504,508,509,510,511,512,515,517,520,521,522,523,524,526,532,534,535,536,537,539,540,542,543,546,548,549,550,551,552,554,557,558,559,561,562,569,572,573,577,579,580,583,587,588,589,590,591,593,595,596,597,600,602,606,608,610,611,612,615,618,621,624,626,628,631,632,633,634,637,638,639,645,647,649,652,654,655,656,657,662,664,665,666,671,674,675,677,680,681,683,684,687,688,689,691,693,695,698]
[1,3,2,3,2,1,2,1,1,1,2,1,2,1,1,1,1,1,3,1,1,1,1,1,3,1,1,1,1,1,2,1,1,2,2,1,1,2,3,2,1,1,1,1,1,3,1,1,2,1,1,2,2,2,1,2,1,1,2,1,1,2,2,1,1,2,2,1,2,1,2,1,1,1,1,2,1,1,1,1,1,1,1,1,1,2,1,1,2,1,1,1,1,3,1,2,2,1,1,1,1,1,1,1,1,1,2,2,1,1,1,2,1,2,2,1,3,2,1,1,1,2,1,2,1,1,1,2,2,1,1,1,1,2,1,1,3,1,1,2,1,1,1,1,2,1,1,1,1,1,1,1,2,2,2,2,1,1,2,1,1,3,3,1,1,1,2,3,1,2,1,3,1,2,1,4,1,1,1,2,2,1,1,1,2,2,2,1,3,1,1,1,2,1,1,1,1,1,1,1,2,1,2,1,1,1,2,1,2,2,1,1,1,2,1,1,1,1,2,1,1,2,4,1,2,1,1,2,1,1,1,3,2,1,1,2,2,1,3,1,2,1,2,1,2,1,1,1,2,1,1,3,2,1,3,2,3,3,1,3,1,1,1,1,1,1,1,2,1,2,1,2,1,2,1,1,1,1,3,1,3,1,3,1,1,1,2,1,2,1,2,1,2,3,1,2,1,3,1,2,2,2,1,1,1,5,1,2,1,3,2,1,1,3,1,2,1,1,2,1,1,1,3,1,1,1,2,1,1,2,1,1,1,1,3,1,1,2]
